c uprop, v00.0, 
c reading from data/prog623.c.cnf
c done reading: 0.002952
p cnf 131 593
-60 -66 0
60 66 0
-49 -58 0
49 58 0
-43 -46 0
43 46 0
-40 -55 0
40 55 0
-37 -62 0
37 62 0
34 -66 0
-34 66 0
33 -58 0
-33 58 0
-46 48 -66 0
46 -48 66 0
46 -48 0
-48 66 0
46 -48 -69 0
-48 66 -69 0
-48 -69 0
-46 48 69 0
48 -66 69 0
46 66 -69 0
-40 -58 70 0
-40 -48 70 0
-48 -58 70 0
40 58 -70 0
40 48 -70 0
48 58 -70 0
40 -70 -71 0
58 -70 -71 0
48 -70 -71 0
-40 70 71 0
-58 70 71 0
-48 70 71 0
-40 -48 -58 71 0
40 48 58 -71 0
-46 -62 72 0
-62 -70 72 0
-46 -70 72 0
46 62 -72 0
62 70 -72 0
46 70 -72 0
62 -72 -73 0
46 -72 -73 0
70 -72 -73 0
-62 72 73 0
-46 72 73 0
-70 72 73 0
-46 -62 -70 73 0
46 62 70 -73 0
40 -74 0
72 -74 0
-40 -72 74 0
-40 -72 -75 0
40 72 -75 0
-40 72 75 0
40 -72 75 0
62 -76 0
74 -76 0
-62 -74 76 0
-62 -68 -74 0
62 -68 74 0
-62 68 74 0
62 68 -74 0
34 -65 0
-34 65 0
-34 -57 0
34 57 0
-33 45 -65 0
33 -45 0
33 -45 65 0
-45 65 0
33 -39 -45 0
-39 -45 0
-39 -45 65 0
-33 39 45 0
39 45 -65 0
33 -39 65 0
-45 64 -69 0
-64 69 0
45 -64 69 0
45 -64 0
-64 69 -79 0
-64 -79 0
45 -64 -79 0
64 -69 79 0
-45 64 79 0
45 69 -79 0
53 -66 -71 0
53 -64 -71 0
53 -64 -66 0
-53 66 71 0
-53 64 71 0
-53 64 66 0
-32 -53 71 0
-32 -53 66 0
-32 -53 64 0
32 53 -71 0
32 53 -66 0
32 53 -64 0
32 -64 -66 -71 0
-32 64 66 71 0
29 -58 -73 0
29 -53 -73 0
29 -53 -58 0
-29 58 73 0
-29 53 73 0
-29 53 58 0
-26 -29 73 0
-26 -29 58 0
-26 -29 53 0
26 29 -73 0
26 29 -58 0
26 29 -53 0
26 -53 -58 -73 0
-26 53 58 73 0
23 -46 -75 0
23 -29 -75 0
23 -29 -46 0
-23 46 75 0
-23 29 75 0
-23 29 46 0
-22 -23 75 0
-22 -23 46 0
-22 -23 29 0
22 23 -75 0
22 23 -46 0
22 23 -29 0
22 -29 -46 -75 0
-22 29 46 75 0
21 -40 -68 0
21 -23 -68 0
21 -23 -40 0
-21 40 68 0
-21 23 68 0
-21 23 40 0
-20 -21 68 0
-20 -21 40 0
-20 -21 23 0
20 21 -68 0
20 21 -40 0
20 21 -23 0
20 -23 -40 -68 0
-20 23 40 68 0
19 -62 -76 0
19 -21 -76 0
19 -21 -62 0
-19 62 76 0
-19 21 76 0
-19 21 62 0
-18 -19 76 0
-18 -19 62 0
-18 -19 21 0
18 19 -76 0
18 19 -62 0
18 19 -21 0
18 -21 -62 -76 0
-18 21 62 76 0
-17 -57 0
17 57 0
-16 -39 0
16 39 0
-15 -79 0
15 79 0
-14 -32 0
14 32 0
-13 -26 0
13 26 0
-12 -22 0
12 22 0
-11 -20 0
11 20 0
-10 -18 0
10 18 0
-9 -19 0
9 19 0
-42 -77 0
-42 -51 0
42 51 77 0
-8 51 77 0
-8 -51 -77 0
8 51 -77 0
8 -51 77 0
42 -54 0
-30 -54 0
30 -42 54 0
-7 30 -42 0
-7 -30 42 0
7 30 42 0
7 -30 -42 0
-36 54 0
-27 -36 0
27 36 -54 0
-6 27 -54 0
-6 -27 54 0
6 27 54 0
6 -27 -54 0
-5 36 0
-5 -24 0
5 24 -36 0
24 -36 -80 0
-24 36 -80 0
24 36 80 0
-24 -36 80 0
5 -81 0
-81 -82 0
-5 81 82 0
-5 82 -84 0
5 -82 -84 0
5 82 84 0
-5 -82 84 0
81 -85 0
-85 -86 0
-81 85 86 0
-81 86 -88 0
81 -86 -88 0
81 86 88 0
-81 -86 88 0
85 -89 0
-89 -90 0
-85 89 90 0
-85 90 -92 0
85 -90 -92 0
85 90 92 0
-85 -90 92 0
51 -93 0
77 -93 0
-51 -77 93 0
-51 -77 -94 0
51 77 -94 0
-51 77 94 0
51 -77 94 0
-30 -51 95 0
-30 -93 95 0
-51 -93 95 0
30 51 -95 0
30 93 -95 0
51 93 -95 0
30 -95 -96 0
51 -95 -96 0
93 -95 -96 0
-30 95 96 0
-51 95 96 0
-93 95 96 0
-30 -51 -93 96 0
30 51 93 -96 0
-27 -30 97 0
-27 -95 97 0
-30 -95 97 0
27 30 -97 0
27 95 -97 0
30 95 -97 0
27 -97 -98 0
30 -97 -98 0
95 -97 -98 0
-27 97 98 0
-30 97 98 0
-95 97 98 0
-27 -30 -95 98 0
27 30 95 -98 0
-24 -27 99 0
-24 -97 99 0
-27 -97 99 0
24 27 -99 0
24 97 -99 0
27 97 -99 0
24 -99 -100 0
27 -99 -100 0
97 -99 -100 0
-24 99 100 0
-27 99 100 0
-97 99 100 0
-24 -27 -97 100 0
24 27 97 -100 0
-24 -82 101 0
-82 -99 101 0
-24 -99 101 0
24 82 -101 0
82 99 -101 0
24 99 -101 0
82 -101 -102 0
24 -101 -102 0
99 -101 -102 0
-82 101 102 0
-24 101 102 0
-99 101 102 0
-24 -82 -99 102 0
24 82 99 -102 0
-82 -86 103 0
-86 -101 103 0
-82 -101 103 0
82 86 -103 0
86 101 -103 0
82 101 -103 0
86 -103 -104 0
82 -103 -104 0
101 -103 -104 0
-86 103 104 0
-82 103 104 0
-101 103 104 0
-82 -86 -101 104 0
82 86 101 -104 0
-86 -90 105 0
-90 -103 105 0
-86 -103 105 0
86 90 -105 0
90 103 -105 0
86 103 -105 0
90 -105 -106 0
86 -105 -106 0
103 -105 -106 0
-90 105 106 0
-86 105 106 0
-103 105 106 0
-86 -90 -103 106 0
86 90 103 -106 0
90 -107 0
105 -107 0
-90 -105 107 0
-90 -105 -108 0
90 105 -108 0
-90 105 108 0
90 -105 108 0
-67 96 0
-67 77 0
67 -77 -96 0
-59 -77 -96 0
-59 77 96 0
59 77 -96 0
59 -77 96 0
47 -51 -98 0
47 -67 -98 0
47 -51 -67 0
-47 51 98 0
-47 67 98 0
-47 51 67 0
-41 -47 98 0
-41 -47 51 0
-41 -47 67 0
41 47 -98 0
41 47 -51 0
41 47 -67 0
41 -51 -67 -98 0
-41 51 67 98 0
-30 63 -100 0
-47 63 -100 0
-30 -47 63 0
30 -63 100 0
47 -63 100 0
30 47 -63 0
-63 -78 100 0
30 -63 -78 0
47 -63 -78 0
63 78 -100 0
-30 63 78 0
-47 63 78 0
-30 -47 78 -100 0
30 47 -78 100 0
-27 52 -102 0
52 -63 -102 0
-27 52 -63 0
27 -52 102 0
-52 63 102 0
27 -52 63 0
-31 -52 102 0
27 -31 -52 0
-31 -52 63 0
31 52 -102 0
-27 31 52 0
31 52 -63 0
-27 31 -63 -102 0
27 -31 63 102 0
-24 28 -104 0
28 -52 -104 0
-24 28 -52 0
24 -28 104 0
-28 52 104 0
24 -28 52 0
-25 -28 104 0
24 -25 -28 0
-25 -28 52 0
25 28 -104 0
-24 25 28 0
25 28 -52 0
-24 25 -52 -104 0
24 -25 52 104 0
-82 83 -106 0
-28 83 -106 0
-28 -82 83 0
82 -83 106 0
28 -83 106 0
28 82 -83 0
-83 -87 106 0
82 -83 -87 0
28 -83 -87 0
83 87 -106 0
-82 83 87 0
-28 83 87 0
-28 -82 87 -106 0
28 82 -87 106 0
-86 91 -108 0
-83 91 -108 0
-83 -86 91 0
86 -91 108 0
83 -91 108 0
83 86 -91 0
-91 108 -109 0
86 -91 -109 0
83 -91 -109 0
91 -108 109 0
-86 91 109 0
-83 91 109 0
-83 -86 -108 109 0
83 86 108 -109 0
-90 -107 110 0
-91 -107 110 0
-90 -91 110 0
90 107 -110 0
91 107 -110 0
90 91 -110 0
107 -110 -111 0
90 -110 -111 0
91 -110 -111 0
-107 110 111 0
-90 110 111 0
-91 110 111 0
-90 -91 -107 111 0
90 91 107 -111 0
-77 -112 0
-94 -112 0
77 94 112 0
77 94 -113 0
-77 -94 -113 0
-77 94 113 0
77 -94 113 0
112 -114 0
-59 -114 0
59 -112 114 0
59 -112 -115 0
-59 112 -115 0
59 112 115 0
-59 -112 115 0
114 -116 0
-41 -116 0
41 -114 116 0
41 -114 -117 0
-41 114 -117 0
41 114 117 0
-41 -114 117 0
116 -118 0
-78 -118 0
78 -116 118 0
78 -116 -119 0
-78 116 -119 0
78 116 119 0
-78 -116 119 0
118 -120 0
-31 -120 0
31 -118 120 0
31 -118 -121 0
-31 118 -121 0
31 118 121 0
-31 -118 121 0
120 -122 0
-25 -122 0
25 -120 122 0
25 -120 -123 0
-25 120 -123 0
25 120 123 0
-25 -120 123 0
122 -124 0
-87 -124 0
87 -122 124 0
87 -122 -125 0
-87 122 -125 0
87 122 125 0
-87 -122 125 0
124 -126 0
-109 -126 0
109 -124 126 0
109 -124 -127 0
-109 124 -127 0
109 124 127 0
-109 -124 127 0
126 -128 0
-111 -128 0
111 -126 128 0
111 -126 -129 0
-111 126 -129 0
111 126 129 0
-111 -126 129 0
-61 128 0
-61 -110 0
61 110 -128 0
110 -128 -130 0
-110 128 -130 0
110 128 130 0
-110 -128 130 0
-50 57 0
-50 77 0
50 -57 -77 0
-57 -77 0
57 77 0
-39 44 -94 0
-39 44 -50 0
44 -50 -94 0
39 -44 94 0
39 -44 50 0
-44 50 94 0
39 -44 0
-44 94 0
-44 50 0
39 50 94 0
56 -59 -79 0
-44 56 -79 0
-44 56 -59 0
-56 59 79 0
44 -56 79 0
44 -56 59 0
-56 79 0
-56 59 0
44 -56 0
44 59 79 0
-32 38 -41 0
-32 38 -56 0
38 -41 -56 0
32 -38 41 0
32 -38 56 0
-38 41 56 0
-32 38 0
38 -41 0
38 -56 0
-32 -41 -56 0
-26 -78 131 0
-26 -38 131 0
-38 -78 131 0
26 78 -131 0
26 38 -131 0
38 78 -131 0
26 -131 0
78 -131 0
38 -131 0
26 38 78 0
-22 -31 35 0
-22 35 -131 0
-31 35 -131 0
22 31 -35 0
22 -35 131 0
31 -35 131 0
-22 35 0
-31 35 0
35 -131 0
-22 -31 -131 0
4 -20 -25 0
4 -20 -35 0
4 -25 -35 0
-4 20 25 0
-4 20 35 0
-4 25 35 0
4 -20 0
4 -25 0
4 -35 0
-20 -25 -35 0
3 -18 -87 0
3 -4 -18 0
3 -4 -87 0
-3 18 87 0
-3 4 18 0
-3 4 87 0
3 -18 0
3 -87 0
3 -4 0
-4 -18 -87 0
2 -19 -109 0
2 -3 -19 0
2 -3 -109 0
-2 19 109 0
-2 3 19 0
-2 3 109 0
2 -19 0
2 -109 0
2 -3 0
-3 -19 -109 0
-1 111 0
-1 2 0
1 -2 -111 0
2 -111 0
-2 111 0
-1 -110 0
1 -110 0
-1 110 0
